# Solution for model GasLib-40
# Objective value = 1.0523653209479317e+01
loadshed[innode_1] 0
loadshed[innode_2] 0
loadshed[innode_3] 0
loadshed[innode_4] 0
loadshed[innode_5] 0
loadshed[innode_6] 0
loadshed[innode_7] 0
loadshed[innode_8] 0
loadshed[source_1] -2.1500947548189209e-01
loadshed[source_2] -4.4697204355241826e-02
loadshed[source_3] 3.2627404474651822e-01
loadshed[sink_1] 0
loadshed[sink_2] 0
loadshed[sink_3] 0
loadshed[sink_4] 0
loadshed[sink_5] 0
loadshed[sink_6] 0
loadshed[sink_7] 0
loadshed[sink_8] 0
loadshed[sink_9] 0
loadshed[sink_10] 0
loadshed[sink_11] 0
loadshed[sink_12] 6.4348452745860785e-01
loadshed[sink_13] 0
loadshed[sink_14] 0
loadshed[sink_15] 0
loadshed[sink_16] 0
loadshed[sink_17] 0
loadshed[sink_18] 0
loadshed[sink_19] 0
loadshed[sink_20] 0
loadshed[sink_21] 0
loadshed[sink_22] 0
loadshed[sink_23] 0
loadshed[sink_24] 0
loadshed[sink_25] 0
loadshed[sink_26] 0
loadshed[sink_27] 0
loadshed[sink_28] 0
loadshed[sink_29] 0
flow[source_1,sink_3] 1.9208118548156438e+02
flow[innode_1,sink_16] 1.6354166666666970e+01
flow[innode_6,sink_13] 7.9696432545585694e+00
flow[sink_13,sink_14] -8.3845234121080985e+00
flow[sink_14,sink_10] -2.4738690078774766e+01
flow[sink_25,sink_26] 1.7640549819585863e+02
flow[sink_26,sink_9] 1.2404661880432606e+02
flow[sink_9,sink_18] 1.0769245213765939e+02
flow[sink_26,sink_4] 3.6004712724865911e+01
flow[sink_4,sink_20] -4.2029181927997683e+01
flow[sink_18,sink_6] 9.1338285470992716e+01
flow[sink_25,innode_8] -159.372852148228
flow[sink_6,sink_7] 4.2275785470992105e+01
flow[sink_6,sink_22] 3.2708333333333641e+01
flow[sink_7,sink_24] 3.8538846790520687e+01
flow[sink_22,sink_1] 1.6354166666666970e+01
flow[sink_24,sink_21] 2.2184680123854019e+01
flow[sink_21,sink_12] 5.8305134571873509e+00
flow[sink_7,sink_5] -1.2617227986195189e+01
flow[sink_5,sink_17] -2.8971394652861818e+01
flow[sink_17,sink_4] -6.1679727986196895e+01
flow[sink_17,sink_8] 1.6354166666668334e+01
flow[sink_3,sink_23] 16.3541666666697
flow[sink_8,sink_20] 0
flow[sink_25,sink_20] 5.8383348594664227e+01
flow[sink_25,sink_15] -9.9739804563520693e+01
flow[sink_15,sink_29] -6.4499933155567874e+01
flow[sink_29,sink_28] 1.6354166666667879e+01
flow[sink_29,sink_2] 6.7948204741286162e+01
flow[sink_2,sink_15] 5.1594038074619490e+01
flow[sink_29,innode_7] -1.6515647123018806e+02
flow[innode_4,sink_19] 90.1553567454419
flow[sink_19,innode_3] 3.6014669243788269e+01
flow[innode_4,innode_5] 1.6354166666679703e+01
flow[sink_27,innode_5] -1.6354166666679703e+01
flow[sink_27,sink_19] 0
flow[sink_10,sink_11] 3.2708333333333641e+01
flow[sink_10,innode_2] -37.7865208349868
flow[sink_10,innode_3] -3.6014669243788269e+01
flow[innode_6,sink_25] -7.9696432545585694e+00
flow[sink_11,innode_1] 1.6354166666666970e+01
flow[sink_19,innode_2] 37.7865208349868
flow[source_3,innode_4] 1.0650952341212161e+02
flow[source_2,innode_7] 1.6515647123018806e+02
flow[sink_3,innode_8] 159.372852148228
pressure[innode_1] 7.5211951783908972e+01
pressure[innode_2] 7.7360826781083887e+01
pressure[innode_3] 77.2810763742624
pressure[innode_4] 81.01325
pressure[innode_5] 8.1002000741808772e+01
pressure[innode_6] 74.222478280081
pressure[innode_7] 81.01325
pressure[innode_8] 8.0371195974607630e+01
pressure[source_1] 81.01325
pressure[source_2] 81.01325
pressure[source_3] 81.01325
pressure[sink_1] 4.5937116669074179e+01
pressure[sink_2] 7.4874756684028213e+01
pressure[sink_3] 8.0371195974607630e+01
pressure[sink_4] 5.7220610279154812e+01
pressure[sink_5] 5.2705254967755671e+01
pressure[sink_6] 4.8038194279461550e+01
pressure[sink_7] 4.7457848515165686e+01
pressure[sink_8] 5.4246329262724949e+01
pressure[sink_9] 5.4373832348401692e+01
pressure[sink_10] 7.5363653091512518e+01
pressure[sink_11] 7.5211951783908972e+01
pressure[sink_12] 1.0132500000000002e+00
pressure[sink_13] 7.4178542968669731e+01
pressure[sink_14] 7.4193547787519179e+01
pressure[sink_15] 7.4706313520857421e+01
pressure[sink_16] 7.4190301949091292e+01
pressure[sink_17] 5.4863414458138571e+01
pressure[sink_18] 5.0477198451351647e+01
pressure[sink_19] 7.7360826781083887e+01
pressure[sink_20] 6.0304066490422912e+01
pressure[sink_21] 3.0880657933117561e+00
pressure[sink_22] 4.7000885811429185e+01
pressure[sink_23] 8.0206477962947844e+01
pressure[sink_24] 3.3337405136573657e+00
pressure[sink_25] 74.222478280081
pressure[sink_26] 6.1798342639350707e+01
pressure[sink_27] 8.0866291377726043e+01
pressure[sink_28] 76.300679120708
pressure[sink_29] 7.6595961394325172e+01
interdiction[source_1,sink_3] 0
interdiction[innode_1,sink_16] 0
interdiction[innode_6,sink_13] 0
interdiction[sink_13,sink_14] 0
interdiction[sink_14,sink_10] 0
interdiction[sink_25,sink_26] 0
interdiction[sink_26,sink_9] 0
interdiction[sink_9,sink_18] 0
interdiction[sink_26,sink_4] 0
interdiction[sink_4,sink_20] 0
interdiction[sink_18,sink_6] 0
interdiction[sink_25,innode_8] 0
interdiction[sink_6,sink_7] 0
interdiction[sink_6,sink_22] 0
interdiction[sink_7,sink_24] 0
interdiction[sink_22,sink_1] 0
interdiction[sink_24,sink_21] 0
interdiction[sink_21,sink_12] 0
interdiction[sink_7,sink_5] 0
interdiction[sink_5,sink_17] 0
interdiction[sink_17,sink_4] 0
interdiction[sink_17,sink_8] 0
interdiction[sink_3,sink_23] 0
interdiction[sink_8,sink_20] 1
interdiction[sink_25,sink_20] 0
interdiction[sink_25,sink_15] 0
interdiction[sink_15,sink_29] 0
interdiction[sink_29,sink_28] 0
interdiction[sink_29,sink_2] 0
interdiction[sink_2,sink_15] 0
interdiction[sink_29,innode_7] 0
interdiction[innode_4,sink_19] 0
interdiction[sink_19,innode_3] 0
interdiction[innode_4,innode_5] 0
interdiction[sink_27,innode_5] 0
interdiction[sink_27,sink_19] 1
interdiction[sink_10,sink_11] 0
interdiction[sink_10,innode_2] 0
interdiction[sink_10,innode_3] 0
interdiction[innode_6,sink_25] 0
interdiction[sink_11,innode_1] 0
interdiction[sink_19,innode_2] 0
interdiction[source_3,innode_4] 0
interdiction[source_2,innode_7] 0
interdiction[sink_3,innode_8] 0
WCcheckFlow[source_1,sink_3] 39
WCcheckFlow[innode_1,sink_16] 1
WCcheckFlow[innode_6,sink_13] 13
WCcheckFlow[sink_13,sink_14] 12
WCcheckFlow[sink_14,sink_10] 11
WCcheckFlow[sink_25,sink_26] 15
WCcheckFlow[sink_26,sink_9] 12
WCcheckFlow[sink_9,sink_18] 11
WCcheckFlow[sink_26,sink_4] 2
WCcheckFlow[sink_4,sink_20] 1
WCcheckFlow[sink_18,sink_6] 10
WCcheckFlow[sink_25,innode_8] -36
WCcheckFlow[sink_6,sink_7] 7
WCcheckFlow[sink_6,sink_22] 2
WCcheckFlow[sink_7,sink_24] 3
WCcheckFlow[sink_22,sink_1] 1
WCcheckFlow[sink_24,sink_21] 2
WCcheckFlow[sink_21,sink_12] 1
WCcheckFlow[sink_7,sink_5] 3
WCcheckFlow[sink_5,sink_17] 2
WCcheckFlow[sink_17,sink_4] 0
WCcheckFlow[sink_17,sink_8] 1
WCcheckFlow[sink_3,sink_23] 1
WCcheckFlow[sink_8,sink_20] 0
WCcheckFlow[sink_25,sink_20] 0
WCcheckFlow[sink_25,sink_15] 6
WCcheckFlow[sink_15,sink_29] 5
WCcheckFlow[sink_29,sink_28] 1
WCcheckFlow[sink_29,sink_2] 1
WCcheckFlow[sink_2,sink_15] 0
WCcheckFlow[sink_29,innode_7] 2
WCcheckFlow[innode_4,sink_19] -4
WCcheckFlow[sink_19,innode_3] -5
WCcheckFlow[innode_4,innode_5] 2
WCcheckFlow[sink_27,innode_5] -1
WCcheckFlow[sink_27,sink_19] 0
WCcheckFlow[sink_10,sink_11] 3
WCcheckFlow[sink_10,innode_2] 1
WCcheckFlow[sink_10,innode_3] 6
WCcheckFlow[innode_6,sink_25] -14
WCcheckFlow[sink_11,innode_1] 2
WCcheckFlow[sink_19,innode_2] 0
WCcheckFlow[source_3,innode_4] -1
WCcheckFlow[source_2,innode_7] -1
WCcheckFlow[sink_3,innode_8] 37
